30
7
7 17 21 14 11 22 24 27 26 2 23 16 5 0 8 10 1 19 4 9 20 28 3 15 29 13 25 6 18 12
19 7 11
19 21 17 14 6 18 0 20 26 24 22 15 9 8 16 13 29 4 10 12 28
7 18 27 9 13 15 6 17 28 25 21 2 4 1 8 3 16 26 29
9 19 24 23 2 3 17 26 0 11 25 14 4 7 13 27 6 22 1 15
9 7 3 10 22 20 5 27 19 17 18 13 8 25 11 0 2 24 4 21 23
9 14 13 4 15 0 26 21 10 11 1 8 6 19 12 5 20 22
